11 1 3 12 8 13 0 14 7 6 2 4 5 10 9
10 8 6 2 1 3 14 13 0 12 7 11 5 9 4
14 4 13 6 9 10 1 3 0 8 2 12 11 5 7
9 11 0 14 7 8 4 1 3 13 12 2 6 10 5
13 6 8 9 7 14 10 1 4 12 0 2 11 3 5
8 13 1 9 0 2 14 11 4 10 7 3 12 6 5
2 13 9 5 14 1 11 3 7 6 10 0 12 4 8
8 11 0 2 3 10 6 14 9 5 13 4 1 7 12
1 13 4 5 2 8 11 12 0 9 3 14 6 7 10
13 8 2 5 11 4 0 9 7 3 1 10 14 6 12
12 9 7 4 10 8 1 11 14 3 6 5 0 13 2
4 5 13 14 9 3 7 1 12 0 2 8 11 6 10
3 0 4 12 8 9 13 2 10 5 11 1 6 7 14
13 5 9 11 1 3 6 0 12 7 10 8 2 4 14
14 11 12 8 3 5 7 0 10 4 13 1 2 6 9